c --- [ banner ] -------------------------------------------------------------
c 
c CaDiCaL Radically Simplified CDCL SAT Solver
c Copyright (c) 2016-2021 A. Biere, M. Fleury, N. Froleyks
c 
c Version 1.5.2 a5f15211db36c3956764e18194dd5bd63bf3b5e6
c g++ (GCC) 9.3.0 -Wall -Wextra -O3 -DNDEBUG
c Fri Oct 21 01:27:37 EDT 2022 Linux gra-login3 3.10.0-1160.66.1.el7.x86_64 x86_64
c 
c --- [ limit ] --------------------------------------------------------------
c 
c setting conflict limit to 200000 conflicts (due to '200000')
c 
c --- [ parsing input ] ------------------------------------------------------
c 
c reading DIMACS file from '33.cubes1787.adj'
c opening file to read '33.cubes1787.adj'
c found 'p cnf 6160 1595481' header
c parsed 1595481 clauses in 19.55 seconds process time
c closing file '33.cubes1787.adj'
c after reading 1457566816 bytes 1390.0 MB
c 
c --- [ options ] ------------------------------------------------------------
c 
c all options are set to their default value
c 
c --- [ solving ] ------------------------------------------------------------
c 
c time measured in process time since initialization
c 
c  seconds    reductions  redundant   irredundant
c          MB     restarts       trail       variables
c            level   conflicts       glue         remaining
c 
c * 19.55 1369  0 0   0    0    0  0% 0 1595422 2371 38%
c { 20.10 1400  0 0   0    0    0  0% 0 1595422 2371 38%
c i 20.33 1407 771 0   0   11   10 30% 1 1595422 2363 38%
c i 21.40 1451 626 0   1   20   18 29% 3 1595422 2352 38%
c i 22.24 1470 304 0   7   44   29 24% 7 1595422 2338 38%
c i 22.37 1471 85 0  28  169   55 18% 8 1595422 2337 38%
c i 22.80 1480 84 0  28  171   56 18% 8 1595422 2336 38%
c i 25.37 1511 76 0  56  285  139 22% 20 1595422 2335 38%
c - 30.09 1460 74 1  60  301  150 22% 20 469792 2335 38%
c i 30.28 1461 72 1  60  314  154 22% 19 469792 2334 38%
c i 30.31 1461 71 1  60  315  154 22% 19 469792 2333 38%
c i 30.87 1461 53 1  65  514  218 21% 17 469792 2326 38%
c i 31.01 1461 54 1  68  529  231 21% 17 469792 2323 38%
c i 31.08 1461 53 1  73  547  245 22% 18 469792 2322 38%
c i 31.11 1461 54 1  73  550  245 22% 17 469792 2319 38%
c i 31.58 1461 39 1  77  830  291 20% 14 469792 2318 38%
c i 31.61 1461 39 1  77  832  292 20% 14 469792 2317 38%
c i 31.68 1462 39 1  77  837  294 20% 14 469792 2316 38%
c i 31.75 1462 39 1  77  843  299 20% 14 469792 2313 38%
c i 31.76 1462 39 1  77  845  300 20% 14 469792 2312 38%
c 
c  seconds    reductions  redundant   irredundant
c          MB     restarts       trail       variables
c            level   conflicts       glue         remaining
c 
c i 32.01 1462 39 1  78  868  319 21% 14 469792 2311 38%
c i 32.05 1462 39 1  79  871  321 21% 14 469792 2310 38%
c i 32.08 1462 39 1  80  872  321 21% 14 469792 2309 37%
c i 32.23 1462 40 1  85  890  336 21% 15 469792 2308 37%
c i 32.25 1462 40 1  85  891  336 21% 15 469792 2307 37%
c i 32.25 1462 40 1  86  892  336 21% 15 469792 2306 37%
c i 32.25 1462 40 1  86  893  336 21% 15 469792 2305 37%
c i 32.25 1462 39 1  86  894  336 21% 15 469792 2304 37%
c i 32.25 1462 39 1  87  895  336 21% 15 469792 2303 37%
c i 32.25 1462 39 1  87  897  337 21% 15 469792 2302 37%
c i 32.29 1462 39 1  88  898  337 21% 15 469792 2301 37%
c i 32.29 1462 39 1  88  900  338 21% 15 469792 2300 37%
c i 32.36 1462 39 1  89  909  346 21% 15 469792 2299 37%
c i 32.38 1462 39 1  90  910  346 21% 15 469792 2298 37%
c i 32.45 1462 40 1  92  928  352 21% 16 469792 2297 37%
c i 32.86 1462 41 1 102  968  383 21% 16 469792 2296 37%
c i 32.88 1463 41 1 103  969  383 21% 16 469792 2295 37%
c i 32.88 1463 41 1 103  970  383 21% 16 469792 2294 37%
c } 33.19 1463 42 1 111 1001  398 21% 16 469792 2294 37%
c [ 33.19 1463  0 1 111 1001  398  0% 0 469792 2294 37%
c 
c  seconds    reductions  redundant  irredundant
c          MB     restarts       trail      variables
c            level   conflicts       glue        remaining
c 
c O 33.19 1463  4 1 111 1002  399 13% 1 469792 2294 37%
c i 33.45 1463 13 1 111 1032  414 21% 7 469792 2293 37%
c i 33.47 1463 13 1 111 1033  414 22% 7 469792 2292 37%
c i 33.53 1463 14 1 111 1041  421 24% 10 469792 2291 37%
c i 33.53 1463 14 1 111 1042  421 24% 9 469792 2290 37%
c i 33.53 1463 14 1 111 1043  421 24% 9 469792 2289 37%
c i 33.56 1463 14 1 111 1050  427 25% 10 469792 2288 37%
c i 33.57 1463 15 1 111 1054  429 25% 10 469792 2287 37%
c i 33.58 1463 14 1 111 1055  429 25% 10 469792 2286 37%
c i 33.58 1463 14 1 111 1056  429 26% 10 469792 2285 37%
c i 33.75 1463 20 1 111 1078  449 27% 13 469792 2284 37%
c i 33.82 1463 21 1 111 1095  464 28% 14 469792 2283 37%
c i 33.82 1463 21 1 111 1096  464 28% 14 469792 2282 37%
c i 33.82 1463 21 1 111 1097  464 28% 14 469792 2281 37%
c i 33.82 1463 20 1 111 1098  464 28% 14 469792 2280 37%
c i 33.89 1463 21 1 111 1127  485 28% 14 469792 2279 37%
c i 33.90 1463 21 1 111 1129  486 28% 14 469792 2278 37%
c i 33.90 1463 21 1 111 1131  487 28% 14 469792 2277 37%
c i 33.90 1463 21 1 111 1133  488 28% 14 469792 2276 37%
c i 33.91 1463 21 1 111 1139  493 29% 14 469792 2275 37%
c 
c  seconds    reductions  redundant   irredundant
c          MB     restarts       trail       variables
c            level   conflicts       glue         remaining
c 
c i 33.94 1463 20 1 111 1157  503 29% 15 469792 2274 37%
c i 33.97 1463 20 1 111 1169  512 29% 15 469792 2273 37%
c i 33.97 1463 20 1 111 1171  513 29% 15 469792 2272 37%
c i 33.98 1463 20 1 111 1177  516 29% 15 469792 2271 37%
c i 33.98 1463 20 1 111 1181  519 29% 14 469792 2270 37%
c i 33.99 1463 20 1 111 1182  519 29% 14 469792 2269 37%
c i 34.00 1463 20 1 111 1185  521 29% 14 469792 2268 37%
c i 34.00 1463 20 1 111 1192  527 29% 14 469792 2267 37%
c i 34.01 1463 20 1 111 1198  532 29% 14 469792 2266 37%
c i 34.02 1463 20 1 111 1199  532 29% 14 469792 2265 37%
c i 34.02 1463 20 1 111 1200  532 29% 14 469792 2264 37%
c i 34.02 1463 19 1 111 1201  532 29% 14 469792 2263 37%
c i 34.03 1463 19 1 111 1208  538 29% 14 469792 2262 37%
c i 34.04 1463 19 1 111 1210  539 29% 14 469792 2261 37%
c i 34.06 1463 19 1 111 1223  549 29% 14 469792 2260 37%
c i 34.07 1463 19 1 111 1226  551 29% 14 469792 2259 37%
c i 34.08 1463 19 1 111 1240  560 29% 14 469792 2258 37%
c i 34.10 1463 19 1 111 1255  574 29% 14 469792 2257 37%
c i 34.11 1463 19 1 111 1258  576 29% 14 469792 2256 37%
c i 34.15 1463 18 1 111 1295  601 29% 14 469792 2255 37%
c 
c  seconds    reductions  redundant   irredundant
c          MB     restarts       trail       variables
c            level   conflicts       glue         remaining
c 
c - 35.09 1653 18 2 111 1305  537 29% 14 469424 2255 37%
c i 35.35 1653 18 2 111 1331  557 30% 14 469424 2254 37%
c i 35.39 1653 18 2 111 1338  560 30% 14 469424 2253 37%
c i 35.47 1653 18 2 111 1353  569 30% 14 469424 2252 37%
c i 35.53 1653 18 2 111 1378  588 30% 14 469424 2251 37%
c i 35.54 1653 18 2 111 1389  595 30% 14 469424 2250 37%
c i 35.57 1653 18 2 111 1413  612 30% 14 469424 2249 37%
c i 35.57 1653 18 2 111 1414  612 30% 14 469424 2248 36%
c i 35.79 1653 18 2 111 1571  716 30% 15 469424 2247 36%
c i 35.80 1653 18 2 111 1577  716 30% 15 469424 2246 36%
c i 35.82 1653 18 2 111 1610  746 30% 15 469424 2245 36%
c i 36.67 1653 23 2 112 2315 1257 31% 19 469424 2244 36%
c - 37.65 1650 25 3 112 2811 1353 31% 21 469391 2244 36%
c ] 38.46 1650 25 3 112 3002 1473 55% 21 469391 2244 36%
c { 38.46 1650 42 3 112 3002 1473 59% 16 469391 2244 36%
c F 38.47 1650 42 3 113 3003 1474 59% 16 469391 2244 36%
c i 38.81 1650 42 3 119 3027 1490 58% 17 469391 2242 36%
c i 38.81 1650 42 3 120 3029 1490 58% 16 469391 2240 36%
c i 38.89 1650 43 3 121 3042 1499 58% 17 469391 2239 36%
c i 39.63 1650 45 3 155 3191 1584 55% 19 469391 2238 36%
c 
c  seconds    reductions  redundant   irredundant
c          MB     restarts       trail       variables
c            level   conflicts       glue         remaining
c 
c i 39.64 1650 45 3 155 3193 1585 55% 19 469391 2237 36%
c i 39.65 1650 45 3 155 3201 1589 54% 18 469391 2233 36%
c i 41.02 1650 48 3 205 3452 1790 53% 21 469391 2232 36%
c i 41.03 1650 48 3 206 3457 1794 53% 21 469391 2231 36%
c i 41.60 1650 49 3 225 3547 1859 52% 22 469391 2230 36%
c i 41.98 1650 46 3 228 3710 1977 51% 21 469391 2229 36%
c i 42.24 1650 48 3 237 3797 2051 51% 21 469391 2228 36%
c i 42.24 1650 48 3 237 3803 2056 51% 21 469391 2227 36%
c i 42.37 1650 48 3 243 3822 2073 51% 21 469391 2226 36%
c i 43.39 1650 43 3 261 4211 2216 47% 20 469391 2225 36%
c - 45.58 1643 39 4 289 4818 1636 42% 19 469334 2225 36%
c i 46.44 1643 40 4 310 4917 1703 42% 19 469334 2224 36%
c d 47.95 1644 40 4 332 5000 1766 42% 19 414687 2207 36%
c 2 48.06 1644 40 4 332 5000 2611 42% 19 414685 2206 36%
c p 55.57 1643 40 4 332 5000 6231 42% 19 414685 2160 35%
c d 56.21 1644 40 4 332 5000 6177 42% 19 414541 2159 35%
c i 57.06 1644 41 4 367 5185 6302 42% 20 414541 2149 35%
c # 60.52 1644 41 4 437 6008 6898 42% 20 414541 2149 35%
c } 62.73 1644 39 4 509 7008 7556 43% 20 414541 2149 35%
c [ 62.73 1644 25 4 509 7008 7556 55% 21 414541 2149 35%
c 
c  seconds    reductions  redundant   irredundant
c          MB     restarts       trail       variables
c            level   conflicts       glue         remaining
c 
c - 63.52 1483 26 5 510 7325 2754 53% 22 331092 2149 35%
c I 65.28 1483 28 5 511 10009 4479 52% 24 331092 2149 35%
c - 65.67 1342 29 6 511 10061 3088 52% 24 331092 2149 35%
c - 71.54 1468 41 7 513 13252 3687 48% 33 331092 2149 35%
c d 74.27 1468 41 7 514 15000 4877 48% 33 316945 2146 35%
c 2 74.35 1468 41 7 514 15000 5700 48% 33 316945 2146 35%
c p 76.07 1468 41 7 514 15000 9410 48% 33 316945 2146 35%
c d 76.20 1468 41 7 514 15000 9374 48% 33 302373 2145 35%
c ] 76.36 1468 41 7 514 15008 9379 48% 33 302373 2145 35%
c { 76.36 1468 39 7 514 15008 9379 43% 20 302373 2145 35%
c B 76.42 1468 39 7 514 15013 9384 43% 20 302373 2145 35%
c } 76.93 1468 38 7 534 15237 9549 44% 20 302373 2145 35%
c 1 76.93 1468 38 7 534 15237 9549 44% 20 302373 2145 35%
c 
c --- [ writing output ] -----------------------------------------------------
c 
c writing simplified CNF to DIMACS file 'simp/33.cubes1787.adj.simp1'
c * 76.93 1468 38 7 534 15237 9549 44% 20 302373 2145 35%
c opening file to write 'simp/33.cubes1787.adj.simp1'
c writing 'p cnf 6160 302373' header
c closing file 'simp/33.cubes1787.adj.simp1'
c after writing 132358701 bytes 126.2 MB
c wrote 302373 clauses in 0.96 seconds process time
c 
c --- [ writing extension ] --------------------------------------------------
c 
c writing extension stack to 'simp/33.cubes1787.adj.ext1'
c opening file to write 'simp/33.cubes1787.adj.ext1'
c closing file 'simp/33.cubes1787.adj.ext1'
c after writing 13464 bytes 0.0 MB
c wrote 893 witnesses in 0.00 seconds process time
c 
c --- [ result ] -------------------------------------------------------------
c 
s SATISFIABLE
c 
c --- [ run-time profiling ] -------------------------------------------------
c 
c process time taken by individual solving procedures
c (percentage relative to process time for solving)
c 
c        46.27   80.64% search
c        28.90   50.38% unstable
c        19.55   34.07% parse
c        16.81   29.30% stable
c        11.11   19.36% simplify
c         9.24   16.10% probe
c         0.55    0.96% lucky
c         0.12    0.22% ternary
c   =================================
c        57.38   73.67% solve
c 
c last line shows process time for solving
c (percentage relative to total process time)
c 
c --- [ statistics ] ---------------------------------------------------------
c 
c chronological:              2666        17.50 %  of conflicts
c conflicts:                 15237       265.56    per second
c decisions:                 50939       887.79    per second
c fixed:                       849        13.78 %  of all variables
c learned:                   14977        98.29 %  per conflict
c learned_lits:            2552401       100.00 %  learned literals
c minimized:                     0         0.00 %  learned literals
c shrunken:                1562222        61.21 %  learned literals
c minishrunken:             176558         6.92 %  learned literals
c propagations:            2340601         0.04 M  per second
c reduced:                    4948        32.47 %  per conflict
c rephased:                      5      3047.40    interval
c restarts:                    534        28.53    interval
c stabilizing:                   2        65.64 %  of conflicts
c substituted:                  22         0.36 %  of all variables
c subsumed:                   4821         0.13 %  of all clauses
c ternary:                    1670         0.51 %  of resolved
c weakened:                     44         2.00    average size
c 
c seconds are measured in process time for solving
c 
c --- [ resources ] ----------------------------------------------------------
c 
c total process time since initialization:        77.89    seconds
c total real time since initialization:           78.21    seconds
c maximum resident set size of process:         1840.05    MB
c 
c --- [ shutting down ] ------------------------------------------------------
c 
c exit 10
WARNING! DIMACS header mismatch: wrong number of variables.
============================[ Problem Statistics ]=============================
|                                                                             |
|  Number of variables:          6120                                         |
|  Number of clauses:          302379                                         |
|  Parse time:                   1.75 s                                       |
|  Simplification time:          0.03 s                                       |
|                                                                             |
============================[ Search Statistics ]====================================================
| Conflicts |          ORIGINAL         |          LEARNT          | Num Sols |      SUBGRAPHS      |
|           |    Vars  Clauses Literals |    Limit  Clauses Lit/Cl |          | Canonical Noncanon. |
=====================================================================================================
|       211 |    6028   302490 28880344 |     2000      211     21 |        0 |        46       111 |
|       390 |    6028   302519 28880851 |     2000      390     48 |        0 |        58       140 |
|       653 |    6028   302557 28881483 |     2000      653     46 |        0 |        86       178 |
|      1120 |    6028   302687 28884001 |     2000     1120     55 |        0 |       138       308 |
|      1706 |    6028   302767 28885624 |     2000     1706     65 |        0 |       173       388 |
|      2629 |    6028   302931 28888006 |     3602     1631     42 |        0 |       197       552 |
|      4579 |    6028   303742 28901342 |     3602     3581     53 |        0 |       451      1363 |
|      6434 |    6028   303889 28905476 |     5005     3639     56 |        0 |       584      1510 |
|      9362 |    6028   304255 28912273 |     6305     4067     45 |        0 |       715      1876 |
|     13704 |    6028   304753 28921439 |     7560     5264     55 |        0 |       966      2374 |
|     20172 |    6028   305455 28934409 |     8782     7954     65 |        0 |      1429      3076 |
|     29743 |    6028   306377 28950124 |    11203     8146     59 |        0 |      1850      3998 |
|     43862 |    6028   307522 28971306 |    13603    10465     64 |        0 |      2314      5143 |
|     64993 |    6028   309192 28997873 |    17207     9400     40 |        0 |      3030      6813 |
|     96939 |    6028   311946 29044633 |    20810    13749     48 |        0 |      4071      9567 |
|    142498 |    6028   313716 29080752 |    25611    14109     40 |        0 |      4774     11337 |
|    214093 |    6028   319627 29186777 |    31610    15703     31 |        0 |      7458     17248 |
|    329329 |    6028   336337 29481431 |    38816    27145     45 |        0 |     14726     33958 |
=====================================================================================================
Number of solutions   : 0
Canonical subgraphs   : 19867          (49 /sec)
          order  3    : 1              (200000 /sec)
          order  4    : 1              (500000 /sec)
          order  5    : 1              (inf /sec)
          order  6    : 1              (inf /sec)
          order  7    : 1              (inf /sec)
          order  8    : 2              (1364 /sec)
          order  9    : 6              (821 /sec)
          order 10    : 18             (443 /sec)
          order 11    : 63             (282 /sec)
          order 12    : 216            (169 /sec)
          order 13    : 512            (127 /sec)
          order 14    : 1147           (91 /sec)
          order 15    : 6190           (62 /sec)
          order 16    : 8445           (46 /sec)
          order 17    : 2159           (31 /sec)
          order 18    : 845            (30 /sec)
          order 19    : 190            (31 /sec)
          order 20    : 35             (30 /sec)
          order 21    : 34             (30 /sec)
          order 22    : 0              (-nan /sec)
Noncanonical subgraphs: 48200          (242 /sec)
          order  3    : 0              (-nan /sec)
          order  4    : 0              (-nan /sec)
          order  5    : 0              (-nan /sec)
          order  6    : 0              (-nan /sec)
          order  7    : 0              (-nan /sec)
          order  8    : 0              (-nan /sec)
          order  9    : 0              (-nan /sec)
          order 10    : 0              (-nan /sec)
          order 11    : 0              (-nan /sec)
          order 12    : 0              (-nan /sec)
          order 13    : 1494           (6276 /sec)
          order 14    : 2027           (3346 /sec)
          order 15    : 24378          (472 /sec)
          order 16    : 7074           (267 /sec)
          order 17    : 13189          (111 /sec)
          order 18    : 1              (3953 /sec)
          order 19    : 0              (-nan /sec)
          order 20    : 0              (-nan /sec)
          order 21    : 1              (51 /sec)
Canonicity checking   : 409.247 s
Noncanonicity checking: 199.157 s
Total canonicity time : 608.404 s
database reductions   : 35
restarts              : 1021
conflicts             : 431929         (499 /sec)
decisions             : 594630         (0.00 % random) (686 /sec)
propagations          : 43901283       (50681 /sec)
conflict literals     : 41000226       (55.36 % deleted)
actual reward         : 0.123633
Memory used           : 372.00 MB
CPU time              : 866.23 s

UNSATISFIABLE
